experiments/sat_smt/run/sat-l/results/freya.res
solved=true
solvingTime=816.3375244140625
nActions=38