experiments/sat_smt/run/sat-l/results/freya.out
Timesteps: 1
s UNSATISFIABLE
real 0.07
user 0.00
sys 0.00
Timesteps: 2
s UNSATISFIABLE
real 0.11
user 0.01
sys 0.00
Timesteps: 3
s UNSATISFIABLE
real 0.08
user 0.02
sys 0.00
Timesteps: 4
s UNSATISFIABLE
real 0.13
user 0.04
sys 0.00
Timesteps: 5
s UNSATISFIABLE
real 0.16
user 0.10
sys 0.00
Timesteps: 6
s UNSATISFIABLE
real 0.19
user 0.15
sys 0.00
Timesteps: 7
s UNSATISFIABLE
real 0.35
user 0.29
sys 0.00
Timesteps: 8
s UNSATISFIABLE
real 0.97
user 0.90
sys 0.00
Timesteps: 9
s UNSATISFIABLE
real 1.80
user 1.72
sys 0.00
Timesteps: 10
s UNSATISFIABLE
real 3.08
user 2.98
sys 0.01
Timesteps: 11
s UNSATISFIABLE
real 5.26
user 5.13
sys 0.01
Timesteps: 12
s UNSATISFIABLE
real 5.23
user 5.10
sys 0.02
Timesteps: 13
s UNSATISFIABLE
real 6.01
user 5.86
sys 0.02
Timesteps: 14
s UNSATISFIABLE
real 6.48
user 6.32
sys 0.02
Timesteps: 15
s UNSATISFIABLE
real 7.25
user 7.08
sys 0.02
Timesteps: 16
s UNSATISFIABLE
real 7.39
user 7.19
sys 0.02
Timesteps: 17
s UNSATISFIABLE
real 8.21
user 8.02
sys 0.02
Timesteps: 18
s UNSATISFIABLE
real 9.49
user 9.23
sys 0.02
Timesteps: 19
s UNSATISFIABLE
real 8.26
user 8.06
sys 0.02
Timesteps: 20
s UNSATISFIABLE
real 10.41
user 10.17
sys 0.03
Timesteps: 21
s UNSATISFIABLE
real 10.51
user 10.28
sys 0.03
Timesteps: 22
s UNSATISFIABLE
real 9.76
user 9.50
sys 0.04
Timesteps: 23
s UNSATISFIABLE
real 12.56
user 12.30
sys 0.03
Timesteps: 24
s UNSATISFIABLE
real 11.02
user 10.75
sys 0.04
Timesteps: 25
s UNSATISFIABLE
real 13.58
user 13.13
sys 0.06
Timesteps: 26
s UNSATISFIABLE
real 14.42
user 14.13
sys 0.04
Timesteps: 27
s UNSATISFIABLE
real 19.08
user 18.74
sys 0.05
Timesteps: 28
s UNSATISFIABLE
real 24.44
user 24.07
sys 0.07
Timesteps: 29
s UNSATISFIABLE
real 23.11
user 22.73
sys 0.06
Timesteps: 30
s UNSATISFIABLE
real 26.08
user 25.67
sys 0.08
Timesteps: 31
s UNSATISFIABLE
real 39.83
user 39.33
sys 0.09
Timesteps: 32
s UNSATISFIABLE
real 45.54
user 45.02
sys 0.09
Timesteps: 33
s UNSATISFIABLE
real 55.18
user 54.59
sys 0.12
Timesteps: 34
s UNSATISFIABLE
real 64.19
user 63.56
sys 0.11
Timesteps: 35
s UNSATISFIABLE
real 57.14
user 56.52
sys 0.13
Timesteps: 36
s UNSATISFIABLE
real 103.50
user 102.15
sys 0.17
Timesteps: 37
s UNSATISFIABLE
real 111.25
user 109.83
sys 0.19
Timesteps: 38
s SATISFIABLE
real 98.07
user 96.83
sys 0.16
